ATOMIC_SPECIES
H   1   H_ONCV_PBE-1.0.upf

NUMERICAL_ORBITAL
H_gga_10au_100Ry_3s2p.orb

LATTICE_CONSTANT
1.8897261258369282 

LATTICE_VECTORS
10.0000000000      0.0000000000      0.0000000000      
0.0000000000      10.0000000000      0.0000000000      
0.0000000000      0.0000000000      10.0000000000      

ATOMIC_POSITIONS
Direct
H   
0.0000000000
1
0.0000000000 0.0000000000 0.0000000000 1 1 1 mag 0.0 