INPUT_PARAMETERS
#Parameters (1.General)
suffix                  H
calculation             scf
symmetry                -1
pseudo_dir              ../../H_orb
orbital_dir             ../../H_orb
basis_type              lcao
ecutwfc                 100   
#Parameters (2. SCF iterations)
scf_nmax                100
scf_thr                 1e-8
#Parameters (3. Solve KS equation)
nspin                   1
nbands                  8
ks_solver               genelpa
#Parameters (4.Smearing)
smearing_method         gauss
smearing_sigma          0.01
#Parameters (5.Mixing)
mixing_type             broyden
mixing_beta             0.8
mixing_gg0              0
exx_pca_threshold 1e-4
exx_c_threshold 1e-4
exx_dm_threshold 1e-4
#exx_schwarz_threshold 1e-5
#exx_cauchy_threshold 1e-7
exx_ccp_rmesh_times 1
dft_functional  hse

deepks_out_labels 2
deepks_v_delta 1